% demand
num_movements = 23;
loading_factor = [1350, 1250, 1300, 950, 1100, 1400, 900, 1300, 1450, 1400, 1450, 1200, 850, 1250, 1950, 950, 1400, 1550, 1500, 1200, 1050, 1200, 1650];
pickup_time = [0, 0, 0, 0, 1, 1, 2, 3, 4, 4, 4, 4, 4, 5, 5, 5, 5, 6, 6, 6, 8, 10, 10];
delivery_time = [3, 1, 3, 4, 4, 4, 3, 4, 6, 5, 5, 5, 5, 6, 6, 12, 9, 12, 7, 9, 12, 12, 12];

% transporter definition
total_capacity = 7000;
num_decks = 3;
capacity = [3000, 1000, 3000];

% ways out of decks
num_ways_out = 1;
paths_out = array3d(decks, ways_out, decks, [
% ways out of deck d1
2, 3, 0, 

% ways out of deck d2
3, 0, 0, 

% ways out of deck d3
0, 0, 0,	

]);

